(declare-var N Int)
(declare-var i Int)
(declare-var i1 Int)
(declare-var min Int)
(declare-var min1 Int)
(declare-var max Int)
(declare-var max1 Int)
(declare-var isPresent Int)
(declare-var isPresent1 Int)
(declare-var len Int)
(declare-var len1 Int)
(declare-var v Int)
(declare-var ret1 Int)
(declare-rel insert (Int Int Int Int Int Int Int Int Int))
(declare-rel inv1 (Int Int Int Int Int Int))
(declare-rel fail ())
(define-fun MAX () Int 128)
(define-fun MIN () Int -129)
(define-fun is_valid ((x Int)) Bool (or (= x 1) (= x 0)))

(rule (=> (and (> N 0) (= i 0) (= min MAX) (= max MIN)) (inv1 i N isPresent min max  len)))
(rule (=> (and (inv1 i N isPresent min max  len) (is_valid isPresent) (< i N) (= v 1) (insert v isPresent min max  len isPresent1 min1 max1  len1) (= i1 (+ i 1))) (inv1 i1 N isPresent1 min1 max1  len1)))
(rule (=> (and (inv1 i N isPresent min max  len) (is_valid isPresent) (not (< i N)) (not (= len 1))) fail))

(query fail :print-certificate true)